p cnf 65 138
10 0
57 0
52 0
58 0
10 0
-10 12 11 0
-12 10 0
-12 8 0
-11 10 0
-11 5 0
8 5 0
-8 -5 0
-8 9 0
-5 7 6 0
-7 5 0
-7 3 0
-7 -33 0
-9 8 0
-9 3 0
-9 -28 0
-6 5 0
-6 1 0
3 1 0
-3 -1 0
-3 4 0
-1 2 0
-2 1 0
-2 57 0
-4 3 0
-4 57 0
-4 -19 0
-3 -16 0
52 0
-52 54 53 56 55 0
-54 52 0
-54 27 0
-53 52 0
-53 42 0
-56 52 0
-56 47 0
-55 52 0
-55 37 0
47 37 27 42 0
-47 59 0
-59 60 0
-37 -59 0
-37 60 0
-60 61 0
-27 -60 0
-27 61 0
-42 -61 0
-47 48 50 0
-37 38 40 0
-27 30 33 35 28 31 0
-27 30 0
-42 45 43 0
-30 27 0
-30 16 0
-45 42 0
-45 24 0
-38 37 0
-38 13 0
-33 27 0
-33 21 0
-33 -7 0
-48 47 0
-48 18 0
-43 42 0
-43 16 0
-50 47 0
-50 24 0
-35 27 0
-35 24 0
-40 37 0
-40 24 0
-28 27 0
-28 13 0
-28 -9 0
-31 27 0
-31 18 0
46 -45 0
39 -38 0
34 -33 0
49 -48 0
44 -43 0
51 -50 0
36 -35 0
41 -40 0
29 -28 0
32 -31 0
13 21 16 24 18 0
-13 62 0
-62 63 0
-21 -62 0
-21 63 0
-63 64 0
-16 -63 0
-16 64 0
-64 65 0
-24 -64 0
-24 65 0
-18 -65 0
-13 14 0
-21 22 0
-16 17 0
-16 17 0
-24 25 0
-18 19 0
-17 16 0
-17 58 0
-19 18 0
-19 58 0
-19 -4 0
-22 21 0
-22 58 0
-25 24 0
-25 58 0
-14 13 0
-14 58 0
-16 -3 0
20 -19 0
23 -22 0
26 -25 0
15 -14 0
-15 0
-20 0
-23 0
-26 0
-29 0
-32 0
-34 0
-36 0
-39 0
-41 0
-44 0
-46 0
-49 0
-51 0
